\ LP format - for model browsing. Use MPS format to capture full model detail.
Maximize
  x_1 + 5 x_2 + 10 x_3 + 3 x_4 + 4 x_5 + 3 x_6 + 9 x_7 + x_8 + 8 x_9
   + 7 x_10 + 8 x_11 + 2 x_12 + 3 x_13 + 3 x_14 + 5 x_15
Subject To
 C_1: 7 x_1 + 6 x_2 + x_3 + 2 x_4 + x_5 + 3 x_6 + 4 x_7 + 6 x_8 + 8 x_9
   + 10 x_10 + 2 x_11 + 5 x_12 + 10 x_13 + 2 x_14 + 4 x_15 <= 35
 C_2: 7 x_1 + 4 x_2 + 10 x_3 + 8 x_4 + 6 x_5 + 3 x_6 + 3 x_7 + 7 x_8
   + 6 x_9 + 2 x_10 + 3 x_11 + 3 x_12 + 4 x_13 + 7 x_14 + 6 x_15 <= 39
 C_3: 8 x_1 + 3 x_2 + x_3 + x_4 + 6 x_5 + 3 x_6 + 5 x_7 + 10 x_8 + 9 x_9
   + 3 x_10 + 9 x_11 + 2 x_12 + 9 x_13 + 10 x_14 + 5 x_15 <= 42
 C_4: 4 x_1 + 6 x_2 + 9 x_3 + 4 x_4 + 6 x_5 + 4 x_6 + 8 x_7 + 8 x_8
   + 10 x_9 + 3 x_10 + 9 x_11 + 4 x_12 + 6 x_13 + 4 x_14 + 10 x_15 <= 47
 C_5: x_1 + 2 x_2 + 5 x_3 + 3 x_4 + 4 x_5 + 10 x_6 + 6 x_7 + 8 x_8 + 9 x_9
   + 6 x_10 + 2 x_11 + 9 x_12 + 9 x_13 + 2 x_14 + 9 x_15 <= 42
Bounds
Binaries
 x_1 x_2 x_3 x_4 x_5 x_6 x_7 x_8 x_9 x_10 x_11 x_12 x_13 x_14 x_15
End
